&CONTROL
   calculation      = 'vc-relax'
   verbosity        = 'high'
   restart_mode     = 'from_scratch'
   pseudo_dir       = '/home/sergei/Documents/Mega_ase/Specific/pseudo'
/
&SYSTEM
   ecutwfc          = 30
   ecutrho          = 60
   ntyp             = 5
   nat              = 73
   ibrav            = 0
/
&ELECTRONS
   conv_thr         = 0.01
/
&IONS
/
&CELL
/

ATOMIC_SPECIES
C 12.011 C.UPF
H 1.008 H.UPF
O 15.999 O.UPF
N 14.007 N.UPF
S 32.06 S.UPF

K_POINTS gamma

CELL_PARAMETERS angstrom
21.00000000000000 0.00000000000000 0.00000000000000
6.00000000000000 14.00000000000000 0.00000000000000
4.00000000000000 5.00000000000000 7.00000000000000

ATOMIC_POSITIONS angstrom
C 10.3948659243 6.6943728927 1.9805202000 
C 9.5134581869 6.6362400769 3.0648760637 
C 10.0126009581 4.2999792473 1.6019425624 
C 10.6352878602 5.5085854441 1.2586700459 
C 8.8852858795 5.4397141887 3.4119559643 
C 9.1293050234 4.2768900265 2.6834400941 
C 11.1372913642 7.9253419741 1.5464799195 
C 10.2648321847 3.0496776576 0.8124149664 
C 17.5275994208 2.9613423183 2.3151828937 
C 16.1897126150 2.8877653589 2.7160968358 
C 23.9732019328 14.9120892392 3.5897685834 
C 24.4099504043 15.9601612608 2.7669078734 
C 21.7440332655 15.8466161007 3.5310307264 
C 22.6287157413 14.8605766898 3.9640479836 
C 18.1066368564 4.0540341768 1.4633545490 
C 24.9209835799 13.8433735052 4.0477916299 
C 13.2148134072 8.9142045036 5.1426928723 
C 13.4056236326 10.3007265984 5.0313501346 
C 14.5206209723 10.8260317436 4.3806084705 
C 15.4931353431 9.9873651135 3.8127808273 
C 15.3080203425 8.6007880877 3.9338005509 
C 14.1929284976 8.0754741994 4.5846285929 
C 8.5850500243 11.5782765855 3.9752973995 
C 6.7280925743 11.1857561136 1.9220259434 
C 8.6170820637 12.4115487539 2.8528128540 
C 7.6360294646 10.5615705737 4.0957748103 
C 7.6872175749 12.2096873677 1.8369936992 
C 6.7130914805 10.3754226992 3.0671230120 
C 5.7567352685 10.9575021777 0.7969032600 
H 9.6282780382 8.5028357949 3.5136915603 
H 11.3242015384 5.5304661972 0.4150545294 
H 8.2010004383 5.4158698719 4.2559519284 
H 8.6279844049 3.3545721202 2.9674173725 
H 10.7984089661 8.8375490012 2.0406268867 
H 11.0036818281 8.0823941137 0.4705001026 
H 12.2055632137 7.8068292746 1.7562131855 
H 11.0752975670 3.1881033957 0.0892365640 
H 9.3622894998 2.7647822675 0.2625811995 
H 10.5535667663 2.2312756321 1.4798584011 
H 15.6081794874 4.4472853808 1.7525019804 
H 19.4578586260 2.0029815865 2.4722508838 
H 20.6996806363 15.8052416790 3.8289569704 
H 22.2619579569 14.0553834852 4.5963362157 
H 17.3541113255 4.7096241177 1.0217084010 
H 18.6722028486 3.6195613350 0.6317188673 
H 18.7811076904 4.6736420277 2.0636988274 
H 25.9570231186 14.0891248144 3.7923876542 
H 24.6695647979 12.8901111792 3.5722441703 
H 24.8668502897 13.7289080190 5.1352646235 
H 11.3079475086 8.9970245116 5.8874604921 
H 11.8514994307 7.4443850453 5.5668698674 
H 12.6692149758 10.9836028486 5.4639365468 
H 14.6379549559 11.9111237821 4.3145514195 
H 16.5280228178 11.4535973396 2.8250072079 
H 17.0823972622 9.9016134977 2.5233593583 
H 16.0509143557 7.9179751851 3.5127556302 
H 14.0821813843 6.9905172986 4.6621778722 
H 9.3762191574 13.1905211967 2.7772902983 
H 7.6392396271 9.9173081945 4.9753974282 
H 7.7145886368 12.8490721135 0.9507865251 
H 5.9748226440 9.5738310762 3.1475752399 
H 26.1428764423 11.8524380945 0.6118835886 
H 10.2892134511 15.7347086213 6.8592016180 
H 5.0818869562 10.1182878056 1.0102107047 
H 9.5664538546 13.0408258301 6.9466564226 
O 9.1982485143 7.7059450772 3.8523612430 
O 15.2332737106 3.7939024718 2.3584671560 
O 9.0010076872 12.8368524474 6.1711838924 
O 10.9725046185 12.4392255999 4.6957090975 
O 9.9661024563 10.5453302980 5.9733833267 
N 12.1201736761 8.3847338498 5.8498574388 
N 16.6471060496 10.5173513533 3.2070198054 
S 9.8129826782 11.7738723971 5.2344394158 

