# Установка параметра соседства
neighbor 1.0 bin
neigh_modify every 20 delay 0 check no

# Установка стиля и коэффициента парных взаимодействий с использованием модели DeepMD
pair_style deepmd ./Specific/graph_mod3.pb
pair_coeff * *

# Настройка вывода термодинамической информации
thermo 1000
thermo_style custom step pe xlo xhi ylo yhi zlo zhi press

# Использование фиксирования для оптимизации ячейки симуляции
fix 1 all box/relax tri 0.0
minimize 1.0e-9 1.0e-6 10 20
unfix 1

# Ниже представлены закомментированные строки с дополнительными фиксированиями и запусками симуляции
# Временной шаг для симуляции
# timestep 0.0005

# Использование фиксирования для проведения симуляции NVE (постоянный объем и энергия)
# fix 22 all nve
# run 200
# unfix 22

# Использование фиксирования для оптимизации ячейки симуляции с другими параметрами
# fix 1 all box/relax tri 0.0
# minimize 1.0e-9 1.0e-6 15000 20000
# unfix 1

# Повторное использование фиксирования NVE для проведения симуляции
# fix 22 all nve
# run 200
# unfix 22

# Использование фиксирования для оптимизации ячейки симуляции с другими параметрами
# fix 1 all box/relax tri 0.0
# min_style cg
# min_modify line quadratic
# minimize 1.0e-14 1.0e-12 100000 100000
# unfix 1
