&CONTROL
    calculation  = 'vc-relax'
    restart_mode = 'from_scratch'
    pseudo_dir   = './'
    outdir       = './'
    prefix = 'H'
    forc_conv_thr=1.0d-4
    etot_conv_thr=1.0d-5
    nstep=1000
/
&SYSTEM
   ntyp             = 5
   nat              = 92
   ibrav            = 0
   ecutwfc=60.0
   nosym = .true.
   occupations = 'smearing'
   degauss=0.05
/
&ELECTRONS
    conv_thr = 1d-12,
    mixing_beta=0.3,
    electron_maxstep = 100
/
&IONS
  ion_dynamics='bfgs',
  pot_extrapolation = "first_order",
/
&CELL
   cell_dynamics = 'bfgs' ,
   cell_factor = 2.0,
   press = 0 ,
/

ATOMIC_SPECIES
C 12.011 C.UPF
H 1.008 H.UPF
O 15.999 O.UPF
N 14.007 N.UPF
S 32.06 S.UPF

K_POINTS {automatic}
4 4 4  0 0 0

CELL_PARAMETERS angstrom
18.22690608177517 2.57620342669240 -6.31900535891302
10.60252367562729 11.62011261823507 1.29918482021622
0.51506868103169 7.34376252909795 10.30067948447808

ATOMIC_POSITIONS angstrom
C 11.0551219344 8.1103223489 4.6433442214 
C 20.4207506235 20.2155351540 6.4317426635 
C 20.5668057643 17.5980058827 5.3814012532 
C 11.0826176165 6.8244616032 4.0905915649 
C 19.3595221973 19.3162765343 6.6216891159 
C 19.4456473291 18.0170430047 6.1124924923 
C 12.2948831236 8.9508289971 4.7190633336 
C 20.6120888701 16.3006258656 4.6109017538 
C 16.7057032123 7.2817855256 -2.5947540407 
C 16.9536428506 6.1860890945 -1.7286590951 
C 17.0266732912 8.8239217515 -0.7079628635 
C 16.6039544130 8.5525585372 -2.0170508545 
C 17.3324570856 6.4268156186 -0.4000174925 
C 17.4477115008 7.7353338982 0.0689048031 
C 16.6008914075 7.0727443981 -4.0794001032 
C 17.0304516750 10.2329228745 -0.1701123112 
C 3.8777553997 7.7214103785 5.3027084811 
C 4.8888876891 7.2897268009 4.4280069307 
C 4.7477660707 6.1163049729 3.6901672267 
C 3.6335450457 5.2773556095 3.8599826704 
C 2.6115780356 5.7190002924 4.7127046284 
C 20.9456436700 9.5098858384 -0.9299924659 
C 11.9423200647 6.7719472986 -0.6017368572 
C 12.3724756326 9.4446953660 0.0722975484 
C 11.1661478461 7.3544445933 0.4116751898 
C 12.9386863794 7.4939090112 -1.2783081631 
C 11.4190616880 8.6755357907 0.7636487490 
C 13.1075635378 8.8368624163 -0.9584849912 
C 12.6118964993 10.8844893577 0.4436862093 
C 7.1737246182 13.6298348403 10.3629894113 
C 7.3244184275 8.9559297623 0.5822298011 
C 24.9993216091 17.1969371949 3.1534059702 
C 7.4413753134 6.5976673413 1.1684846087 
C 25.3205875916 18.5259294428 3.4251722856 
C 7.7370614987 7.9313200095 1.4483660550 
C 7.6931879540 10.3879309892 0.8692953956 
H 9.2286503194 10.2212590390 6.1196902928 
H 12.0167090153 6.4648580910 3.6486799910 
H 18.4660038416 19.6433770456 7.1598265302 
H 18.6247131231 17.3207295649 6.2930746231 
H 12.3862483834 9.6037033384 3.8333710583 
H 13.1896424174 8.3156298308 4.7549326392 
H 12.3101193000 9.6095480785 5.6012180000 
H 21.2083139714 16.3752836448 3.6888072922 
H 19.6138335992 15.9380689739 4.3224906313 
H 21.0848882595 15.5065631983 5.2083932305 
H 16.7534905253 4.2407557075 -1.5512020201 
H 16.1727575502 9.3623284745 -2.6137750315 
H 17.5479381786 5.5875461232 0.2635828777 
H 17.8745340566 7.8966264586 1.0593717403 
H 17.5743657597 6.8108008686 -4.5303274988 
H 16.2283508374 7.9680818662 -4.5910717649 
H 15.9087922602 6.2518729409 -4.3279121421 
H 16.0266550964 10.6902974188 -0.2016615098 
H 17.6920934741 10.9011984675 -0.7479149175 
H 17.3711850284 10.2720200861 0.8747506208 
H 23.0698321298 12.0133617643 -0.4077721340 
H 21.4218940119 12.0383548299 -0.1627924621 
H 5.7904872159 7.8925919748 4.2934797871 
H 5.5059303126 5.8450072810 2.9541192553 
H 2.6958956811 3.5330437073 3.2762595646 
H 4.0250496223 3.9842652533 2.2963525979 
H 1.7153042177 5.1081363956 4.8441958710 
H 20.1121259837 9.8467943726 -0.3098431994 
H 10.3866273246 6.7746750966 0.9011033221 
H 14.0817306681 14.3471946627 8.2780183568 
H 10.8724862341 9.1120985775 1.6036044559 
H 13.8201840349 9.4292044308 -1.5343153451 
H 11.6865227770 11.3816500848 0.7739360788 
H 13.3260302637 10.9793608258 1.2810555308 
H 13.0239710363 11.4676147507 -0.3937350255 
H 8.8652670366 4.6095296496 -2.1073333309 
H 24.4606772097 16.9181218667 2.2490449733 
H 7.8124634987 5.7939306986 1.8003380723 
H 24.9784418971 19.3012754027 2.7404983863 
H 8.2985923022 8.1742793953 2.3525806753 
H 7.5977652404 10.6365244767 1.9388784579 
H 26.9682278134 13.1766633262 -5.7214567039 
H 7.0678019236 11.0911505307 0.2995525619 
H 8.0005220423 11.8948927604 7.9191043138 
O 20.2791329981 21.5682812117 6.5956066035 
O 16.8493399117 4.9257683941 -2.2471695542 
O 8.3244074842 4.4416855736 -2.9108481028 
O 10.2981047341 4.6958082070 -0.7253193691 
O 12.9020078773 11.9994799369 8.1143266398 
O 6.4638954493 11.8096471135 8.6448819767 
O 23.5915829763 14.3763669028 4.5081127814 
O 7.7124972823 11.0906917919 10.6594010054 
N 22.2485779568 11.4453220412 -0.2113826182 
N 3.5747930716 4.0355636250 3.2123990376 
S 11.6611981465 5.1074963613 -1.0235135514 
S 6.6413938453 11.9108980699 10.1089430126 

