&CONTROL
    calculation  = 'vc-relax'
    restart_mode = 'from_scratch'
    pseudo_dir   = './'
    outdir       = './'
    prefix = 'H'
    forc_conv_thr=1.0d-4
    etot_conv_thr=1.0d-5
    nstep=1000
/
&SYSTEM
   ntyp             = 5
   nat              = 92
   ibrav            = 0
   ecutwfc=60.0
   nosym = .true.
   occupations = 'smearing'
   degauss=0.05
/
&ELECTRONS
    conv_thr = 1d-12,
    mixing_beta=0.3,
    electron_maxstep = 100
/
&IONS
  ion_dynamics='bfgs',
  pot_extrapolation = "first_order",
/
&CELL
   cell_dynamics = 'bfgs' ,
   cell_factor = 2.0,
   press = 0 ,
/

ATOMIC_SPECIES
C 12.011 C.UPF
H 1.008 H.UPF
O 15.999 O.UPF
N 14.007 N.UPF
S 32.06 S.UPF

K_POINTS {automatic}
4 4 4  0 0 0

CELL_PARAMETERS angstrom
21.00000000000000 0.00000000000000 0.00000000000000
10.00000000000000 14.00000000000000 0.00000000000000
2.00000000000000 6.00000000000000 7.00000000000000

ATOMIC_POSITIONS angstrom
C 10.7068640799 4.4579898399 4.3922309723 
C 20.1489975842 18.1406471855 5.6348754410 
C 20.2204122527 16.1722782382 3.6429275923 
C 10.7362222291 3.4541530924 3.4040952990 
C 19.6290109296 16.8695612435 5.8812359767 
C 19.6602002914 15.8897057522 4.8906042651 
C 11.3137579781 5.7857976556 4.0408372058 
C 20.2425081222 15.1194572862 2.5746072765 
C 18.2017302491 4.8041626568 1.8058418052 
C 19.4751461316 4.2442217718 1.9506342715 
C 19.2543137738 6.9976110948 1.4842514837 
C 18.1108696977 6.1909576233 1.5745275024 
C 20.6193602019 5.0372835126 1.8580797301 
C 20.5121499459 6.4067653399 1.6225670261 
C 16.9136663825 4.0400461338 1.9148775468 
C 19.1419719120 8.4698589775 1.2194988452 
C 4.6851455539 8.4128157391 4.2460360353 
C 6.0646365999 8.1637279047 4.3248330632 
C 6.6398049640 7.0739864762 3.6734696865 
C 5.8602299703 6.1861267837 2.9148247461 
C 4.4790222816 6.4288522469 2.8451192544 
C 24.9038358373 7.5186820832 3.4965738780 
C 12.9856926327 10.1733320008 0.8567885990 
C 15.3300148725 11.6468121034 1.2457572193 
C 14.0539205025 9.5931540651 1.5478912643 
C 13.0629578355 11.4785174618 0.3675371865 
C 15.2158690934 10.3353658829 1.7383686424 
C 14.2357969829 12.2055816821 0.5685745705 
C 16.6075533018 12.4192610893 1.4267380282 
C 8.2796782113 13.5578376142 5.8665502745 
C 7.4733619562 9.5372892480 0.4398198989 
C 29.2374616804 14.8895799326 5.4422623123 
C 6.9167531223 7.1961036890 0.0548810656 
C 29.8363855024 15.8674391068 6.2311642281 
C 7.5107384285 8.1906199752 0.8312243455 
C 8.0805441890 10.6122548588 1.2984901495 
H 10.3930969191 5.8827513493 6.4122345084 
H 11.1731464404 3.6783542222 2.4316761251 
H 19.1966332307 16.6435890166 6.8523849777 
H 19.2473209755 14.9057831414 5.1005155409 
H 11.1264724857 6.5627587232 4.7840732445 
H 10.8969234610 6.1485847705 3.0948541491 
H 12.3982459324 5.6800730230 3.9315384125 
H 20.8296845722 15.4395056004 1.7075457355 
H 19.2234446919 14.9067263087 2.2364932298 
H 20.6943799733 14.1990192439 2.9583205979 
H 18.8701785469 2.4330874027 2.1799921604 
H 17.1281001442 6.6483433853 1.4662213055 
H 21.6001367099 4.5826693545 1.9700963020 
H 21.4155539288 7.0078738606 1.5506951436 
H 17.0482763014 2.9573032039 1.9411850136 
H 16.2763016357 4.2567331074 1.0505498405 
H 16.3841792069 4.3348612323 2.8269989400 
H 18.1020834599 8.8089205539 1.2711909836 
H 19.5270102209 8.7019568938 0.2215299527 
H 19.7110699092 9.0339960672 1.9654928707 
H 25.7261088141 10.2554056518 5.1409438189 
H 24.2199881088 9.8117268074 4.5547136105 
H 6.7018013904 8.8335388465 4.9088904397 
H 7.7174218967 6.9094201498 3.7584120218 
H 7.4185398943 5.1548372369 2.0753976793 
H 5.9098249427 4.6989918698 1.5071015494 
H 3.8399488176 5.7517528960 2.2719479215 
H 23.8243847766 7.6758589162 3.4224716440 
H 13.9729179729 8.5676593311 1.9092636360 
H 14.2208573829 17.9043396471 6.8213114433 
H 16.0596273019 9.8836179152 2.2664984019 
H 14.3094039465 13.2234334233 0.1779053831 
H 16.8554824465 12.5363860510 2.4929360000 
H 17.4530721221 11.8929769656 0.9570814529 
H 16.5412787299 13.4195973298 0.9793722271 
H 9.8381447528 9.1525391413 1.8477994448 
H 28.7229229655 15.1475661565 4.5162580632 
H 6.9256803787 6.1524071076 0.3702190085 
H 29.7960390255 16.9121765619 5.9120702053 
H 8.0005709904 7.9178454495 1.7691586105 
H 8.8616176718 11.1645839903 0.7536764405 
H 28.3193969038 11.3482340339 1.6008869374 
H 8.5290677595 10.1956975317 2.2098120865 
H 8.3966978962 11.1941905571 3.3504705466 
O 20.0644490680 19.0140844138 6.6806850746 
O 19.7057594015 2.9193280541 2.1856512703 
O 10.7034122291 9.6136589524 1.8848516833 
O 11.8494371223 7.8057867704 0.6041650518 
O 12.8301577706 15.7385829261 6.3968934227 
O 8.7048559790 11.9073007108 3.9498073957 
O 27.4314118508 12.9234547807 4.0940843255 
O 7.1298757387 11.1851605776 5.7441199685 
N 25.0966461009 9.4784474958 4.9508440880 
N 6.4318320435 5.0541191580 2.3054726094 
S 11.5351944862 9.2109048372 0.5385056702 
S 7.4516972833 12.3183556370 4.9127961385 

