 &control
    calculation  = 'vc-relax'
    restart_mode = 'from_scratch'
    pseudo_dir   = './'
    outdir       = './'
    prefix = 'H'
    forc_conv_thr=1.0d-4
    etot_conv_thr=1.0d-5
    nstep=1000
 /
 &system
    ibrav=0
    nat=92
    ntyp=5
    ecutwfc=60.0
    nosym = .true.
    occupations = 'smearing'
    degauss=0.05
 /
 &electrons
    conv_thr = 1d-12,
    mixing_beta=0.3,
    electron_maxstep = 100
 /
&IONS
  ion_dynamics='bfgs',
  pot_extrapolation = "first_order",
 /
&CELL
   cell_dynamics = 'bfgs' ,
   cell_factor = 2.0,
   press = 0 ,
/

 ATOMIC_SPECIES
 C 12 C.1.UPF
 H 1 H.1.UPF

 K_POINTS {automatic}
 4 4 4  0 0 0

ATOMIC_POSITIONS (crystal)
C     0.946300030         0.142499998         0.009700000
C     0.053700000         0.857500017         0.990300000
C     0.553699970         0.857500017         0.509700000
C     0.446300000         0.142499998         0.490300000
C     0.053700000         0.642499983         0.490300000
C     0.946300030         0.357500017         0.509700000
C     0.446300000         0.357500017         0.990300000
C     0.553699970         0.642499983         0.009700000
C     0.083999999         0.092399999         0.137300000
C     0.916000009         0.907599986         0.862699986
C     0.416000009         0.907599986         0.637300014
C     0.583999991         0.092399999         0.362699986
C     0.916000009         0.592400014         0.362699986
C     0.083999999         0.407599986         0.637300014
C     0.583999991         0.407599986         0.862699986
C     0.416000009         0.592400014         0.137300000
C     0.134299994         0.947899997         0.123499997
C     0.865700006         0.052099999         0.876500010
C     0.365700006         0.052099999         0.623499990
C     0.634299994         0.947899997         0.376500010
C     0.865700006         0.447899997         0.376500010
C     0.134299994         0.552100003         0.623499990
C     0.634299994         0.552100003         0.876500010
C     0.365700006         0.447899997         0.123499997
H     0.915000021         0.246000007         0.034000002
H     0.085000001         0.754000008         0.966000021
H     0.584999979         0.754000008         0.533999979
H     0.414999992         0.246000007         0.465999991
H     0.085000001         0.745999992         0.465999991
H     0.915000021         0.254000008         0.533999979
H     0.414999992         0.254000008         0.966000021
H     0.584999979         0.745999992         0.034000002
H     0.140000001         0.156000003         0.218999997
H     0.860000014         0.843999982         0.781000018
H     0.360000014         0.843999982         0.718999982
H     0.639999986         0.156000003         0.281000018
H     0.860000014         0.656000018         0.281000018
H     0.140000001         0.343999982         0.718999982
H     0.639999986         0.343999982         0.781000018
H     0.360000014         0.656000018         0.218999997
H     0.219999999         0.920000017         0.203999996
H     0.779999971         0.079999998         0.796000004
H     0.280000001         0.079999998         0.703999996
H     0.720000029         0.920000017         0.296000004
H     0.779999971         0.420000017         0.296000004
H     0.219999999         0.579999983         0.703999996
H     0.720000029         0.579999983         0.796000004
H     0.280000001         0.420000017         0.203999996


CELL_PARAMETERS {Angstrom}
7.287000 0.000000 0.000000
0.000000 9.200000 0.000000
0.000000 0.000000 6.688000
